# LAMMPS INPUT SCRIPT
# Calculate the lattice constant and cohesive energy of an fcc structure

# INITIALIZATION
clear 
units metal 
dimension 3 
boundary p p p 
atom_style atomic 
atom_modify map array
#variable element string "Cu" # change this to the desired element

# ATOM DEFINITION
lattice fcc ${latconst} orient x 1 0 0 orient y 0 1 0 orient z 0 0 1  
region box block 0 1 0 1 0 1 units lattice
create_box 1 box
create_atoms 1 box
replicate 1 1 1

# DEFINE INTERATOMIC POTENTIAL
pair_style eam/alloy 
pair_coeff * * CuAgAuNiPdPtAlPbFeMoTaWMgCoTiZr_Zhou04.eam.alloy.txt ${element}
neighbor 2.0 bin 
neigh_modify delay 10 check yes 
 
# DEFINE COMPUTES 
compute eng all pe/atom 
compute eatoms all reduce sum c_eng 

# MINIMIZATION
reset_timestep 0 
thermo 10 
thermo_style custom step pe lx ly lz press c_eatoms 
min_style cg 
minimize 1e-25 1e-25 5000 10000 

variable natoms equal "count(all)" 
variable teng equal "c_eatoms"
variable volume equal "lx*ly*lz"
variable energy_per_atom equal "v_teng/v_natoms"

print "Total energy (eV) = ${teng}"
print "Number of atoms = ${natoms}"
print "Volume (Angstoms^3) = ${volume}"
print "Energy per atom (eV/atom) = ${energy_per_atom}"

# OUTPUT THE FINAL RELAXED STRUCTURE
write_data relaxed_${element}_${count}.data

print "All done!"
